inputs/inputs_zig_zag/input_30_8.lp
edificio( 1 , 1 , 2 ).
edificio( 1 , 2 , 1 ).
edificio( 1 , 3 , 0 ).
edificio( 1 , 4 , 0 ).
edificio( 1 , 5 , 0 ).
edificio( 1 , 6 , 1 ).
edificio( 1 , 7 , 0 ).
edificio( 1 , 8 , 0 ).
edificio( 1 , 9 , 0 ).
edificio( 1 , 10 , 1 ).
edificio( 1 , 11 , 0 ).
edificio( 1 , 12 , 0 ).
edificio( 1 , 13 , 0 ).
edificio( 1 , 14 , 1 ).
edificio( 1 , 15 , 0 ).
edificio( 1 , 16 , 0 ).
edificio( 1 , 17 , 0 ).
edificio( 1 , 18 , 1 ).
edificio( 1 , 19 , 0 ).
edificio( 1 , 20 , 0 ).
edificio( 1 , 21 , 0 ).
edificio( 1 , 22 , 1 ).
edificio( 1 , 23 , 0 ).
edificio( 1 , 24 , 0 ).
edificio( 1 , 25 , 0 ).
edificio( 1 , 26 , 1 ).
edificio( 1 , 27 , 0 ).
edificio( 1 , 28 , 0 ).
edificio( 1 , 29 , 0 ).
edificio( 1 , 30 , 0 ).
edificio( 2 , 1 , 0 ).
edificio( 2 , 2 , 1 ).
edificio( 2 , 3 , 0 ).
edificio( 2 , 4 , 1 ).
edificio( 2 , 5 , 0 ).
edificio( 2 , 6 , 1 ).
edificio( 2 , 7 , 0 ).
edificio( 2 , 8 , 1 ).
edificio( 2 , 9 , 0 ).
edificio( 2 , 10 , 1 ).
edificio( 2 , 11 , 0 ).
edificio( 2 , 12 , 1 ).
edificio( 2 , 13 , 0 ).
edificio( 2 , 14 , 1 ).
edificio( 2 , 15 , 0 ).
edificio( 2 , 16 , 1 ).
edificio( 2 , 17 , 0 ).
edificio( 2 , 18 , 1 ).
edificio( 2 , 19 , 0 ).
edificio( 2 , 20 , 1 ).
edificio( 2 , 21 , 0 ).
edificio( 2 , 22 , 1 ).
edificio( 2 , 23 , 0 ).
edificio( 2 , 24 , 1 ).
edificio( 2 , 25 , 0 ).
edificio( 2 , 26 , 1 ).
edificio( 2 , 27 , 0 ).
edificio( 2 , 28 , 1 ).
edificio( 2 , 29 , 0 ).
edificio( 2 , 30 , 0 ).
edificio( 3 , 1 , 0 ).
edificio( 3 , 2 , 1 ).
edificio( 3 , 3 , 0 ).
edificio( 3 , 4 , 1 ).
edificio( 3 , 5 , 0 ).
edificio( 3 , 6 , 1 ).
edificio( 3 , 7 , 0 ).
edificio( 3 , 8 , 1 ).
edificio( 3 , 9 , 0 ).
edificio( 3 , 10 , 1 ).
edificio( 3 , 11 , 0 ).
edificio( 3 , 12 , 1 ).
edificio( 3 , 13 , 0 ).
edificio( 3 , 14 , 1 ).
edificio( 3 , 15 , 0 ).
edificio( 3 , 16 , 1 ).
edificio( 3 , 17 , 0 ).
edificio( 3 , 18 , 1 ).
edificio( 3 , 19 , 0 ).
edificio( 3 , 20 , 1 ).
edificio( 3 , 21 , 0 ).
edificio( 3 , 22 , 1 ).
edificio( 3 , 23 , 0 ).
edificio( 3 , 24 , 1 ).
edificio( 3 , 25 , 0 ).
edificio( 3 , 26 , 1 ).
edificio( 3 , 27 , 0 ).
edificio( 3 , 28 , 1 ).
edificio( 3 , 29 , 0 ).
edificio( 3 , 30 , 0 ).
edificio( 4 , 1 , 0 ).
edificio( 4 , 2 , 1 ).
edificio( 4 , 3 , 0 ).
edificio( 4 , 4 , 1 ).
edificio( 4 , 5 , 0 ).
edificio( 4 , 6 , 1 ).
edificio( 4 , 7 , 0 ).
edificio( 4 , 8 , 1 ).
edificio( 4 , 9 , 0 ).
edificio( 4 , 10 , 1 ).
edificio( 4 , 11 , 0 ).
edificio( 4 , 12 , 1 ).
edificio( 4 , 13 , 0 ).
edificio( 4 , 14 , 1 ).
edificio( 4 , 15 , 0 ).
edificio( 4 , 16 , 1 ).
edificio( 4 , 17 , 0 ).
edificio( 4 , 18 , 1 ).
edificio( 4 , 19 , 0 ).
edificio( 4 , 20 , 1 ).
edificio( 4 , 21 , 0 ).
edificio( 4 , 22 , 1 ).
edificio( 4 , 23 , 0 ).
edificio( 4 , 24 , 1 ).
edificio( 4 , 25 , 0 ).
edificio( 4 , 26 , 1 ).
edificio( 4 , 27 , 0 ).
edificio( 4 , 28 , 1 ).
edificio( 4 , 29 , 0 ).
edificio( 4 , 30 , 0 ).
edificio( 5 , 1 , 0 ).
edificio( 5 , 2 , 1 ).
edificio( 5 , 3 , 0 ).
edificio( 5 , 4 , 1 ).
edificio( 5 , 5 , 0 ).
edificio( 5 , 6 , 1 ).
edificio( 5 , 7 , 0 ).
edificio( 5 , 8 , 1 ).
edificio( 5 , 9 , 0 ).
edificio( 5 , 10 , 1 ).
edificio( 5 , 11 , 0 ).
edificio( 5 , 12 , 1 ).
edificio( 5 , 13 , 0 ).
edificio( 5 , 14 , 1 ).
edificio( 5 , 15 , 0 ).
edificio( 5 , 16 , 1 ).
edificio( 5 , 17 , 0 ).
edificio( 5 , 18 , 1 ).
edificio( 5 , 19 , 0 ).
edificio( 5 , 20 , 1 ).
edificio( 5 , 21 , 0 ).
edificio( 5 , 22 , 1 ).
edificio( 5 , 23 , 0 ).
edificio( 5 , 24 , 1 ).
edificio( 5 , 25 , 0 ).
edificio( 5 , 26 , 1 ).
edificio( 5 , 27 , 0 ).
edificio( 5 , 28 , 1 ).
edificio( 5 , 29 , 0 ).
edificio( 5 , 30 , 0 ).
edificio( 6 , 1 , 0 ).
edificio( 6 , 2 , 1 ).
edificio( 6 , 3 , 0 ).
edificio( 6 , 4 , 1 ).
edificio( 6 , 5 , 0 ).
edificio( 6 , 6 , 1 ).
edificio( 6 , 7 , 0 ).
edificio( 6 , 8 , 1 ).
edificio( 6 , 9 , 0 ).
edificio( 6 , 10 , 1 ).
edificio( 6 , 11 , 0 ).
edificio( 6 , 12 , 1 ).
edificio( 6 , 13 , 0 ).
edificio( 6 , 14 , 1 ).
edificio( 6 , 15 , 0 ).
edificio( 6 , 16 , 1 ).
edificio( 6 , 17 , 0 ).
edificio( 6 , 18 , 1 ).
edificio( 6 , 19 , 0 ).
edificio( 6 , 20 , 1 ).
edificio( 6 , 21 , 0 ).
edificio( 6 , 22 , 1 ).
edificio( 6 , 23 , 0 ).
edificio( 6 , 24 , 1 ).
edificio( 6 , 25 , 0 ).
edificio( 6 , 26 , 1 ).
edificio( 6 , 27 , 0 ).
edificio( 6 , 28 , 1 ).
edificio( 6 , 29 , 0 ).
edificio( 6 , 30 , 0 ).
edificio( 7 , 1 , 0 ).
edificio( 7 , 2 , 1 ).
edificio( 7 , 3 , 0 ).
edificio( 7 , 4 , 1 ).
edificio( 7 , 5 , 0 ).
edificio( 7 , 6 , 1 ).
edificio( 7 , 7 , 0 ).
edificio( 7 , 8 , 1 ).
edificio( 7 , 9 , 0 ).
edificio( 7 , 10 , 1 ).
edificio( 7 , 11 , 0 ).
edificio( 7 , 12 , 1 ).
edificio( 7 , 13 , 0 ).
edificio( 7 , 14 , 1 ).
edificio( 7 , 15 , 0 ).
edificio( 7 , 16 , 1 ).
edificio( 7 , 17 , 0 ).
edificio( 7 , 18 , 1 ).
edificio( 7 , 19 , 0 ).
edificio( 7 , 20 , 1 ).
edificio( 7 , 21 , 0 ).
edificio( 7 , 22 , 1 ).
edificio( 7 , 23 , 0 ).
edificio( 7 , 24 , 1 ).
edificio( 7 , 25 , 0 ).
edificio( 7 , 26 , 1 ).
edificio( 7 , 27 , 0 ).
edificio( 7 , 28 , 1 ).
edificio( 7 , 29 , 0 ).
edificio( 7 , 30 , 0 ).
edificio( 8 , 1 , 0 ).
edificio( 8 , 2 , 1 ).
edificio( 8 , 3 , 0 ).
edificio( 8 , 4 , 1 ).
edificio( 8 , 5 , 0 ).
edificio( 8 , 6 , 1 ).
edificio( 8 , 7 , 0 ).
edificio( 8 , 8 , 1 ).
edificio( 8 , 9 , 0 ).
edificio( 8 , 10 , 1 ).
edificio( 8 , 11 , 0 ).
edificio( 8 , 12 , 1 ).
edificio( 8 , 13 , 0 ).
edificio( 8 , 14 , 1 ).
edificio( 8 , 15 , 0 ).
edificio( 8 , 16 , 1 ).
edificio( 8 , 17 , 0 ).
edificio( 8 , 18 , 1 ).
edificio( 8 , 19 , 0 ).
edificio( 8 , 20 , 1 ).
edificio( 8 , 21 , 0 ).
edificio( 8 , 22 , 1 ).
edificio( 8 , 23 , 0 ).
edificio( 8 , 24 , 1 ).
edificio( 8 , 25 , 0 ).
edificio( 8 , 26 , 1 ).
edificio( 8 , 27 , 0 ).
edificio( 8 , 28 , 1 ).
edificio( 8 , 29 , 0 ).
edificio( 8 , 30 , 0 ).
edificio( 9 , 1 , 0 ).
edificio( 9 , 2 , 1 ).
edificio( 9 , 3 , 0 ).
edificio( 9 , 4 , 1 ).
edificio( 9 , 5 , 0 ).
edificio( 9 , 6 , 1 ).
edificio( 9 , 7 , 0 ).
edificio( 9 , 8 , 1 ).
edificio( 9 , 9 , 0 ).
edificio( 9 , 10 , 1 ).
edificio( 9 , 11 , 0 ).
edificio( 9 , 12 , 1 ).
edificio( 9 , 13 , 0 ).
edificio( 9 , 14 , 1 ).
edificio( 9 , 15 , 0 ).
edificio( 9 , 16 , 1 ).
edificio( 9 , 17 , 0 ).
edificio( 9 , 18 , 1 ).
edificio( 9 , 19 , 0 ).
edificio( 9 , 20 , 1 ).
edificio( 9 , 21 , 0 ).
edificio( 9 , 22 , 1 ).
edificio( 9 , 23 , 0 ).
edificio( 9 , 24 , 1 ).
edificio( 9 , 25 , 0 ).
edificio( 9 , 26 , 1 ).
edificio( 9 , 27 , 0 ).
edificio( 9 , 28 , 1 ).
edificio( 9 , 29 , 0 ).
edificio( 9 , 30 , 0 ).
edificio( 10 , 1 , 0 ).
edificio( 10 , 2 , 1 ).
edificio( 10 , 3 , 0 ).
edificio( 10 , 4 , 1 ).
edificio( 10 , 5 , 0 ).
edificio( 10 , 6 , 1 ).
edificio( 10 , 7 , 0 ).
edificio( 10 , 8 , 1 ).
edificio( 10 , 9 , 0 ).
edificio( 10 , 10 , 1 ).
edificio( 10 , 11 , 0 ).
edificio( 10 , 12 , 1 ).
edificio( 10 , 13 , 0 ).
edificio( 10 , 14 , 1 ).
edificio( 10 , 15 , 0 ).
edificio( 10 , 16 , 1 ).
edificio( 10 , 17 , 0 ).
edificio( 10 , 18 , 1 ).
edificio( 10 , 19 , 0 ).
edificio( 10 , 20 , 1 ).
edificio( 10 , 21 , 0 ).
edificio( 10 , 22 , 1 ).
edificio( 10 , 23 , 0 ).
edificio( 10 , 24 , 1 ).
edificio( 10 , 25 , 0 ).
edificio( 10 , 26 , 1 ).
edificio( 10 , 27 , 0 ).
edificio( 10 , 28 , 1 ).
edificio( 10 , 29 , 0 ).
edificio( 10 , 30 , 0 ).
edificio( 11 , 1 , 0 ).
edificio( 11 , 2 , 1 ).
edificio( 11 , 3 , 0 ).
edificio( 11 , 4 , 1 ).
edificio( 11 , 5 , 0 ).
edificio( 11 , 6 , 1 ).
edificio( 11 , 7 , 0 ).
edificio( 11 , 8 , 1 ).
edificio( 11 , 9 , 0 ).
edificio( 11 , 10 , 1 ).
edificio( 11 , 11 , 0 ).
edificio( 11 , 12 , 1 ).
edificio( 11 , 13 , 0 ).
edificio( 11 , 14 , 1 ).
edificio( 11 , 15 , 0 ).
edificio( 11 , 16 , 1 ).
edificio( 11 , 17 , 0 ).
edificio( 11 , 18 , 1 ).
edificio( 11 , 19 , 0 ).
edificio( 11 , 20 , 1 ).
edificio( 11 , 21 , 0 ).
edificio( 11 , 22 , 1 ).
edificio( 11 , 23 , 0 ).
edificio( 11 , 24 , 1 ).
edificio( 11 , 25 , 0 ).
edificio( 11 , 26 , 1 ).
edificio( 11 , 27 , 0 ).
edificio( 11 , 28 , 1 ).
edificio( 11 , 29 , 0 ).
edificio( 11 , 30 , 0 ).
edificio( 12 , 1 , 0 ).
edificio( 12 , 2 , 1 ).
edificio( 12 , 3 , 0 ).
edificio( 12 , 4 , 1 ).
edificio( 12 , 5 , 0 ).
edificio( 12 , 6 , 1 ).
edificio( 12 , 7 , 0 ).
edificio( 12 , 8 , 1 ).
edificio( 12 , 9 , 0 ).
edificio( 12 , 10 , 1 ).
edificio( 12 , 11 , 0 ).
edificio( 12 , 12 , 1 ).
edificio( 12 , 13 , 0 ).
edificio( 12 , 14 , 1 ).
edificio( 12 , 15 , 0 ).
edificio( 12 , 16 , 1 ).
edificio( 12 , 17 , 0 ).
edificio( 12 , 18 , 1 ).
edificio( 12 , 19 , 0 ).
edificio( 12 , 20 , 1 ).
edificio( 12 , 21 , 0 ).
edificio( 12 , 22 , 1 ).
edificio( 12 , 23 , 0 ).
edificio( 12 , 24 , 1 ).
edificio( 12 , 25 , 0 ).
edificio( 12 , 26 , 1 ).
edificio( 12 , 27 , 0 ).
edificio( 12 , 28 , 1 ).
edificio( 12 , 29 , 0 ).
edificio( 12 , 30 , 0 ).
edificio( 13 , 1 , 0 ).
edificio( 13 , 2 , 1 ).
edificio( 13 , 3 , 0 ).
edificio( 13 , 4 , 1 ).
edificio( 13 , 5 , 0 ).
edificio( 13 , 6 , 1 ).
edificio( 13 , 7 , 0 ).
edificio( 13 , 8 , 1 ).
edificio( 13 , 9 , 0 ).
edificio( 13 , 10 , 1 ).
edificio( 13 , 11 , 0 ).
edificio( 13 , 12 , 1 ).
edificio( 13 , 13 , 0 ).
edificio( 13 , 14 , 1 ).
edificio( 13 , 15 , 0 ).
edificio( 13 , 16 , 1 ).
edificio( 13 , 17 , 0 ).
edificio( 13 , 18 , 1 ).
edificio( 13 , 19 , 0 ).
edificio( 13 , 20 , 1 ).
edificio( 13 , 21 , 0 ).
edificio( 13 , 22 , 1 ).
edificio( 13 , 23 , 0 ).
edificio( 13 , 24 , 1 ).
edificio( 13 , 25 , 0 ).
edificio( 13 , 26 , 1 ).
edificio( 13 , 27 , 0 ).
edificio( 13 , 28 , 1 ).
edificio( 13 , 29 , 0 ).
edificio( 13 , 30 , 0 ).
edificio( 14 , 1 , 0 ).
edificio( 14 , 2 , 1 ).
edificio( 14 , 3 , 0 ).
edificio( 14 , 4 , 1 ).
edificio( 14 , 5 , 0 ).
edificio( 14 , 6 , 1 ).
edificio( 14 , 7 , 0 ).
edificio( 14 , 8 , 1 ).
edificio( 14 , 9 , 0 ).
edificio( 14 , 10 , 1 ).
edificio( 14 , 11 , 0 ).
edificio( 14 , 12 , 1 ).
edificio( 14 , 13 , 0 ).
edificio( 14 , 14 , 1 ).
edificio( 14 , 15 , 0 ).
edificio( 14 , 16 , 1 ).
edificio( 14 , 17 , 0 ).
edificio( 14 , 18 , 1 ).
edificio( 14 , 19 , 0 ).
edificio( 14 , 20 , 1 ).
edificio( 14 , 21 , 0 ).
edificio( 14 , 22 , 1 ).
edificio( 14 , 23 , 0 ).
edificio( 14 , 24 , 1 ).
edificio( 14 , 25 , 0 ).
edificio( 14 , 26 , 1 ).
edificio( 14 , 27 , 0 ).
edificio( 14 , 28 , 1 ).
edificio( 14 , 29 , 0 ).
edificio( 14 , 30 , 0 ).
edificio( 15 , 1 , 0 ).
edificio( 15 , 2 , 1 ).
edificio( 15 , 3 , 0 ).
edificio( 15 , 4 , 1 ).
edificio( 15 , 5 , 0 ).
edificio( 15 , 6 , 1 ).
edificio( 15 , 7 , 0 ).
edificio( 15 , 8 , 1 ).
edificio( 15 , 9 , 0 ).
edificio( 15 , 10 , 1 ).
edificio( 15 , 11 , 0 ).
edificio( 15 , 12 , 1 ).
edificio( 15 , 13 , 0 ).
edificio( 15 , 14 , 1 ).
edificio( 15 , 15 , 0 ).
edificio( 15 , 16 , 1 ).
edificio( 15 , 17 , 0 ).
edificio( 15 , 18 , 1 ).
edificio( 15 , 19 , 0 ).
edificio( 15 , 20 , 1 ).
edificio( 15 , 21 , 0 ).
edificio( 15 , 22 , 1 ).
edificio( 15 , 23 , 0 ).
edificio( 15 , 24 , 1 ).
edificio( 15 , 25 , 0 ).
edificio( 15 , 26 , 1 ).
edificio( 15 , 27 , 0 ).
edificio( 15 , 28 , 1 ).
edificio( 15 , 29 , 0 ).
edificio( 15 , 30 , 0 ).
edificio( 16 , 1 , 0 ).
edificio( 16 , 2 , 1 ).
edificio( 16 , 3 , 0 ).
edificio( 16 , 4 , 1 ).
edificio( 16 , 5 , 0 ).
edificio( 16 , 6 , 1 ).
edificio( 16 , 7 , 0 ).
edificio( 16 , 8 , 1 ).
edificio( 16 , 9 , 0 ).
edificio( 16 , 10 , 1 ).
edificio( 16 , 11 , 0 ).
edificio( 16 , 12 , 1 ).
edificio( 16 , 13 , 0 ).
edificio( 16 , 14 , 1 ).
edificio( 16 , 15 , 0 ).
edificio( 16 , 16 , 1 ).
edificio( 16 , 17 , 0 ).
edificio( 16 , 18 , 1 ).
edificio( 16 , 19 , 0 ).
edificio( 16 , 20 , 1 ).
edificio( 16 , 21 , 0 ).
edificio( 16 , 22 , 1 ).
edificio( 16 , 23 , 0 ).
edificio( 16 , 24 , 1 ).
edificio( 16 , 25 , 0 ).
edificio( 16 , 26 , 1 ).
edificio( 16 , 27 , 0 ).
edificio( 16 , 28 , 1 ).
edificio( 16 , 29 , 0 ).
edificio( 16 , 30 , 0 ).
edificio( 17 , 1 , 0 ).
edificio( 17 , 2 , 1 ).
edificio( 17 , 3 , 0 ).
edificio( 17 , 4 , 1 ).
edificio( 17 , 5 , 0 ).
edificio( 17 , 6 , 1 ).
edificio( 17 , 7 , 0 ).
edificio( 17 , 8 , 1 ).
edificio( 17 , 9 , 0 ).
edificio( 17 , 10 , 1 ).
edificio( 17 , 11 , 0 ).
edificio( 17 , 12 , 1 ).
edificio( 17 , 13 , 0 ).
edificio( 17 , 14 , 1 ).
edificio( 17 , 15 , 0 ).
edificio( 17 , 16 , 1 ).
edificio( 17 , 17 , 0 ).
edificio( 17 , 18 , 1 ).
edificio( 17 , 19 , 0 ).
edificio( 17 , 20 , 1 ).
edificio( 17 , 21 , 0 ).
edificio( 17 , 22 , 1 ).
edificio( 17 , 23 , 0 ).
edificio( 17 , 24 , 1 ).
edificio( 17 , 25 , 0 ).
edificio( 17 , 26 , 1 ).
edificio( 17 , 27 , 0 ).
edificio( 17 , 28 , 1 ).
edificio( 17 , 29 , 0 ).
edificio( 17 , 30 , 0 ).
edificio( 18 , 1 , 0 ).
edificio( 18 , 2 , 1 ).
edificio( 18 , 3 , 0 ).
edificio( 18 , 4 , 1 ).
edificio( 18 , 5 , 0 ).
edificio( 18 , 6 , 1 ).
edificio( 18 , 7 , 0 ).
edificio( 18 , 8 , 1 ).
edificio( 18 , 9 , 0 ).
edificio( 18 , 10 , 1 ).
edificio( 18 , 11 , 0 ).
edificio( 18 , 12 , 1 ).
edificio( 18 , 13 , 0 ).
edificio( 18 , 14 , 1 ).
edificio( 18 , 15 , 0 ).
edificio( 18 , 16 , 1 ).
edificio( 18 , 17 , 0 ).
edificio( 18 , 18 , 1 ).
edificio( 18 , 19 , 0 ).
edificio( 18 , 20 , 1 ).
edificio( 18 , 21 , 0 ).
edificio( 18 , 22 , 1 ).
edificio( 18 , 23 , 0 ).
edificio( 18 , 24 , 1 ).
edificio( 18 , 25 , 0 ).
edificio( 18 , 26 , 1 ).
edificio( 18 , 27 , 0 ).
edificio( 18 , 28 , 1 ).
edificio( 18 , 29 , 0 ).
edificio( 18 , 30 , 0 ).
edificio( 19 , 1 , 0 ).
edificio( 19 , 2 , 1 ).
edificio( 19 , 3 , 0 ).
edificio( 19 , 4 , 1 ).
edificio( 19 , 5 , 0 ).
edificio( 19 , 6 , 1 ).
edificio( 19 , 7 , 0 ).
edificio( 19 , 8 , 1 ).
edificio( 19 , 9 , 0 ).
edificio( 19 , 10 , 1 ).
edificio( 19 , 11 , 0 ).
edificio( 19 , 12 , 1 ).
edificio( 19 , 13 , 0 ).
edificio( 19 , 14 , 1 ).
edificio( 19 , 15 , 0 ).
edificio( 19 , 16 , 1 ).
edificio( 19 , 17 , 0 ).
edificio( 19 , 18 , 1 ).
edificio( 19 , 19 , 0 ).
edificio( 19 , 20 , 1 ).
edificio( 19 , 21 , 0 ).
edificio( 19 , 22 , 1 ).
edificio( 19 , 23 , 0 ).
edificio( 19 , 24 , 1 ).
edificio( 19 , 25 , 0 ).
edificio( 19 , 26 , 1 ).
edificio( 19 , 27 , 0 ).
edificio( 19 , 28 , 1 ).
edificio( 19 , 29 , 0 ).
edificio( 19 , 30 , 0 ).
edificio( 20 , 1 , 0 ).
edificio( 20 , 2 , 1 ).
edificio( 20 , 3 , 0 ).
edificio( 20 , 4 , 1 ).
edificio( 20 , 5 , 0 ).
edificio( 20 , 6 , 1 ).
edificio( 20 , 7 , 0 ).
edificio( 20 , 8 , 1 ).
edificio( 20 , 9 , 0 ).
edificio( 20 , 10 , 1 ).
edificio( 20 , 11 , 0 ).
edificio( 20 , 12 , 1 ).
edificio( 20 , 13 , 0 ).
edificio( 20 , 14 , 1 ).
edificio( 20 , 15 , 0 ).
edificio( 20 , 16 , 1 ).
edificio( 20 , 17 , 0 ).
edificio( 20 , 18 , 1 ).
edificio( 20 , 19 , 0 ).
edificio( 20 , 20 , 1 ).
edificio( 20 , 21 , 0 ).
edificio( 20 , 22 , 1 ).
edificio( 20 , 23 , 0 ).
edificio( 20 , 24 , 1 ).
edificio( 20 , 25 , 0 ).
edificio( 20 , 26 , 1 ).
edificio( 20 , 27 , 0 ).
edificio( 20 , 28 , 1 ).
edificio( 20 , 29 , 0 ).
edificio( 20 , 30 , 0 ).
edificio( 21 , 1 , 0 ).
edificio( 21 , 2 , 1 ).
edificio( 21 , 3 , 0 ).
edificio( 21 , 4 , 1 ).
edificio( 21 , 5 , 0 ).
edificio( 21 , 6 , 1 ).
edificio( 21 , 7 , 0 ).
edificio( 21 , 8 , 1 ).
edificio( 21 , 9 , 0 ).
edificio( 21 , 10 , 1 ).
edificio( 21 , 11 , 0 ).
edificio( 21 , 12 , 1 ).
edificio( 21 , 13 , 0 ).
edificio( 21 , 14 , 1 ).
edificio( 21 , 15 , 0 ).
edificio( 21 , 16 , 1 ).
edificio( 21 , 17 , 0 ).
edificio( 21 , 18 , 1 ).
edificio( 21 , 19 , 0 ).
edificio( 21 , 20 , 1 ).
edificio( 21 , 21 , 0 ).
edificio( 21 , 22 , 1 ).
edificio( 21 , 23 , 0 ).
edificio( 21 , 24 , 1 ).
edificio( 21 , 25 , 0 ).
edificio( 21 , 26 , 1 ).
edificio( 21 , 27 , 0 ).
edificio( 21 , 28 , 1 ).
edificio( 21 , 29 , 0 ).
edificio( 21 , 30 , 0 ).
edificio( 22 , 1 , 0 ).
edificio( 22 , 2 , 1 ).
edificio( 22 , 3 , 0 ).
edificio( 22 , 4 , 1 ).
edificio( 22 , 5 , 0 ).
edificio( 22 , 6 , 1 ).
edificio( 22 , 7 , 0 ).
edificio( 22 , 8 , 1 ).
edificio( 22 , 9 , 0 ).
edificio( 22 , 10 , 1 ).
edificio( 22 , 11 , 0 ).
edificio( 22 , 12 , 1 ).
edificio( 22 , 13 , 0 ).
edificio( 22 , 14 , 1 ).
edificio( 22 , 15 , 0 ).
edificio( 22 , 16 , 1 ).
edificio( 22 , 17 , 0 ).
edificio( 22 , 18 , 1 ).
edificio( 22 , 19 , 0 ).
edificio( 22 , 20 , 1 ).
edificio( 22 , 21 , 0 ).
edificio( 22 , 22 , 1 ).
edificio( 22 , 23 , 0 ).
edificio( 22 , 24 , 1 ).
edificio( 22 , 25 , 0 ).
edificio( 22 , 26 , 1 ).
edificio( 22 , 27 , 0 ).
edificio( 22 , 28 , 1 ).
edificio( 22 , 29 , 0 ).
edificio( 22 , 30 , 0 ).
edificio( 23 , 1 , 0 ).
edificio( 23 , 2 , 1 ).
edificio( 23 , 3 , 0 ).
edificio( 23 , 4 , 1 ).
edificio( 23 , 5 , 0 ).
edificio( 23 , 6 , 1 ).
edificio( 23 , 7 , 0 ).
edificio( 23 , 8 , 1 ).
edificio( 23 , 9 , 0 ).
edificio( 23 , 10 , 1 ).
edificio( 23 , 11 , 0 ).
edificio( 23 , 12 , 1 ).
edificio( 23 , 13 , 0 ).
edificio( 23 , 14 , 1 ).
edificio( 23 , 15 , 0 ).
edificio( 23 , 16 , 1 ).
edificio( 23 , 17 , 0 ).
edificio( 23 , 18 , 1 ).
edificio( 23 , 19 , 0 ).
edificio( 23 , 20 , 1 ).
edificio( 23 , 21 , 0 ).
edificio( 23 , 22 , 1 ).
edificio( 23 , 23 , 0 ).
edificio( 23 , 24 , 1 ).
edificio( 23 , 25 , 0 ).
edificio( 23 , 26 , 1 ).
edificio( 23 , 27 , 0 ).
edificio( 23 , 28 , 1 ).
edificio( 23 , 29 , 0 ).
edificio( 23 , 30 , 0 ).
edificio( 24 , 1 , 0 ).
edificio( 24 , 2 , 1 ).
edificio( 24 , 3 , 0 ).
edificio( 24 , 4 , 1 ).
edificio( 24 , 5 , 0 ).
edificio( 24 , 6 , 1 ).
edificio( 24 , 7 , 0 ).
edificio( 24 , 8 , 1 ).
edificio( 24 , 9 , 0 ).
edificio( 24 , 10 , 1 ).
edificio( 24 , 11 , 0 ).
edificio( 24 , 12 , 1 ).
edificio( 24 , 13 , 0 ).
edificio( 24 , 14 , 1 ).
edificio( 24 , 15 , 0 ).
edificio( 24 , 16 , 1 ).
edificio( 24 , 17 , 0 ).
edificio( 24 , 18 , 1 ).
edificio( 24 , 19 , 0 ).
edificio( 24 , 20 , 1 ).
edificio( 24 , 21 , 0 ).
edificio( 24 , 22 , 1 ).
edificio( 24 , 23 , 0 ).
edificio( 24 , 24 , 1 ).
edificio( 24 , 25 , 0 ).
edificio( 24 , 26 , 1 ).
edificio( 24 , 27 , 0 ).
edificio( 24 , 28 , 1 ).
edificio( 24 , 29 , 0 ).
edificio( 24 , 30 , 0 ).
edificio( 25 , 1 , 0 ).
edificio( 25 , 2 , 1 ).
edificio( 25 , 3 , 0 ).
edificio( 25 , 4 , 1 ).
edificio( 25 , 5 , 0 ).
edificio( 25 , 6 , 1 ).
edificio( 25 , 7 , 0 ).
edificio( 25 , 8 , 1 ).
edificio( 25 , 9 , 0 ).
edificio( 25 , 10 , 1 ).
edificio( 25 , 11 , 0 ).
edificio( 25 , 12 , 1 ).
edificio( 25 , 13 , 0 ).
edificio( 25 , 14 , 1 ).
edificio( 25 , 15 , 0 ).
edificio( 25 , 16 , 1 ).
edificio( 25 , 17 , 0 ).
edificio( 25 , 18 , 1 ).
edificio( 25 , 19 , 0 ).
edificio( 25 , 20 , 1 ).
edificio( 25 , 21 , 0 ).
edificio( 25 , 22 , 1 ).
edificio( 25 , 23 , 0 ).
edificio( 25 , 24 , 1 ).
edificio( 25 , 25 , 0 ).
edificio( 25 , 26 , 1 ).
edificio( 25 , 27 , 0 ).
edificio( 25 , 28 , 1 ).
edificio( 25 , 29 , 0 ).
edificio( 25 , 30 , 0 ).
edificio( 26 , 1 , 0 ).
edificio( 26 , 2 , 1 ).
edificio( 26 , 3 , 0 ).
edificio( 26 , 4 , 1 ).
edificio( 26 , 5 , 0 ).
edificio( 26 , 6 , 1 ).
edificio( 26 , 7 , 0 ).
edificio( 26 , 8 , 1 ).
edificio( 26 , 9 , 0 ).
edificio( 26 , 10 , 1 ).
edificio( 26 , 11 , 0 ).
edificio( 26 , 12 , 1 ).
edificio( 26 , 13 , 0 ).
edificio( 26 , 14 , 1 ).
edificio( 26 , 15 , 0 ).
edificio( 26 , 16 , 1 ).
edificio( 26 , 17 , 0 ).
edificio( 26 , 18 , 1 ).
edificio( 26 , 19 , 0 ).
edificio( 26 , 20 , 1 ).
edificio( 26 , 21 , 0 ).
edificio( 26 , 22 , 1 ).
edificio( 26 , 23 , 0 ).
edificio( 26 , 24 , 1 ).
edificio( 26 , 25 , 0 ).
edificio( 26 , 26 , 1 ).
edificio( 26 , 27 , 0 ).
edificio( 26 , 28 , 1 ).
edificio( 26 , 29 , 0 ).
edificio( 26 , 30 , 0 ).
edificio( 27 , 1 , 0 ).
edificio( 27 , 2 , 1 ).
edificio( 27 , 3 , 0 ).
edificio( 27 , 4 , 1 ).
edificio( 27 , 5 , 0 ).
edificio( 27 , 6 , 1 ).
edificio( 27 , 7 , 0 ).
edificio( 27 , 8 , 1 ).
edificio( 27 , 9 , 0 ).
edificio( 27 , 10 , 1 ).
edificio( 27 , 11 , 0 ).
edificio( 27 , 12 , 1 ).
edificio( 27 , 13 , 0 ).
edificio( 27 , 14 , 1 ).
edificio( 27 , 15 , 0 ).
edificio( 27 , 16 , 1 ).
edificio( 27 , 17 , 0 ).
edificio( 27 , 18 , 1 ).
edificio( 27 , 19 , 0 ).
edificio( 27 , 20 , 1 ).
edificio( 27 , 21 , 0 ).
edificio( 27 , 22 , 1 ).
edificio( 27 , 23 , 0 ).
edificio( 27 , 24 , 1 ).
edificio( 27 , 25 , 0 ).
edificio( 27 , 26 , 1 ).
edificio( 27 , 27 , 0 ).
edificio( 27 , 28 , 1 ).
edificio( 27 , 29 , 0 ).
edificio( 27 , 30 , 0 ).
edificio( 28 , 1 , 0 ).
edificio( 28 , 2 , 1 ).
edificio( 28 , 3 , 0 ).
edificio( 28 , 4 , 1 ).
edificio( 28 , 5 , 0 ).
edificio( 28 , 6 , 1 ).
edificio( 28 , 7 , 0 ).
edificio( 28 , 8 , 1 ).
edificio( 28 , 9 , 0 ).
edificio( 28 , 10 , 1 ).
edificio( 28 , 11 , 0 ).
edificio( 28 , 12 , 1 ).
edificio( 28 , 13 , 0 ).
edificio( 28 , 14 , 1 ).
edificio( 28 , 15 , 0 ).
edificio( 28 , 16 , 1 ).
edificio( 28 , 17 , 0 ).
edificio( 28 , 18 , 1 ).
edificio( 28 , 19 , 0 ).
edificio( 28 , 20 , 1 ).
edificio( 28 , 21 , 0 ).
edificio( 28 , 22 , 1 ).
edificio( 28 , 23 , 0 ).
edificio( 28 , 24 , 1 ).
edificio( 28 , 25 , 0 ).
edificio( 28 , 26 , 1 ).
edificio( 28 , 27 , 0 ).
edificio( 28 , 28 , 1 ).
edificio( 28 , 29 , 0 ).
edificio( 28 , 30 , 0 ).
edificio( 29 , 1 , 0 ).
edificio( 29 , 2 , 1 ).
edificio( 29 , 3 , 0 ).
edificio( 29 , 4 , 1 ).
edificio( 29 , 5 , 0 ).
edificio( 29 , 6 , 1 ).
edificio( 29 , 7 , 0 ).
edificio( 29 , 8 , 1 ).
edificio( 29 , 9 , 0 ).
edificio( 29 , 10 , 1 ).
edificio( 29 , 11 , 0 ).
edificio( 29 , 12 , 1 ).
edificio( 29 , 13 , 0 ).
edificio( 29 , 14 , 1 ).
edificio( 29 , 15 , 0 ).
edificio( 29 , 16 , 1 ).
edificio( 29 , 17 , 0 ).
edificio( 29 , 18 , 1 ).
edificio( 29 , 19 , 0 ).
edificio( 29 , 20 , 1 ).
edificio( 29 , 21 , 0 ).
edificio( 29 , 22 , 1 ).
edificio( 29 , 23 , 0 ).
edificio( 29 , 24 , 1 ).
edificio( 29 , 25 , 0 ).
edificio( 29 , 26 , 1 ).
edificio( 29 , 27 , 0 ).
edificio( 29 , 28 , 1 ).
edificio( 29 , 29 , 0 ).
edificio( 29 , 30 , 0 ).
edificio( 30 , 1 , 0 ).
edificio( 30 , 2 , 0 ).
edificio( 30 , 3 , 0 ).
edificio( 30 , 4 , 1 ).
edificio( 30 , 5 , 0 ).
edificio( 30 , 6 , 0 ).
edificio( 30 , 7 , 0 ).
edificio( 30 , 8 , 1 ).
edificio( 30 , 9 , 0 ).
edificio( 30 , 10 , 0 ).
edificio( 30 , 11 , 0 ).
edificio( 30 , 12 , 1 ).
edificio( 30 , 13 , 0 ).
edificio( 30 , 14 , 0 ).
edificio( 30 , 15 , 0 ).
edificio( 30 , 16 , 1 ).
edificio( 30 , 17 , 0 ).
edificio( 30 , 18 , 0 ).
edificio( 30 , 19 , 0 ).
edificio( 30 , 20 , 1 ).
edificio( 30 , 21 , 0 ).
edificio( 30 , 22 , 0 ).
edificio( 30 , 23 , 0 ).
edificio( 30 , 24 , 1 ).
edificio( 30 , 25 , 0 ).
edificio( 30 , 26 , 0 ).
edificio( 30 , 27 , 0 ).
edificio( 30 , 28 , 1 ).
edificio( 30 , 29 , 0 ).
edificio( 30 , 30 , 3 ).
